HUN,8,6,476
2,42,4,7,0,83,1,85,5,3,3,39
3,73,0,30,1,85,5,59,2,41,4,70
3,48,4,64,1,26,5,91,0,62,2,45
2,45,0,25,4,33,3,63,1,51,5,34
4,65,5,75,0,59,1,22,2,33,3,13
2,96,4,9,3,62,0,34,5,62,1,52
2,79,1,12,3,68,0,88,4,15,5,90
2,71,5,24,1,99,4,86,3,18,0,76
